int NumberPatients = 72
int NumberOfRooms = 3
int NumberSurgeons = 17
int NumberOfDays = 6
Duration = [93,53,47,227,103,118,66,85,132,34,252,50,50,238,132,132,72,98,32,119,103,101,105,85,98,98,30,98,67,101,238,47,30,47,47,119,201,260,60,53,78,78,85,42,105,32,31,98,31,272,98,72,47,32,98,66,32,103,29,105,81,98,98,103,32,50,112,317,47,80,103,96];
Priority = [0,0,0,0,0,0,0,0,0,1,0,0,0,0,0,0,0,0,0,0,0,1,1,0,0,0,0,0,0,0,0,0,0,0,0,0,0,0,0,0,0,0,0,0,0,0,0,2,0,0,0,0,0,0,0,0,0,0,0,0,0,1,0,0,0,0,0,0,0,0,0,0];
Waiting = [169,56,144,78,115,25,227,80,200,148,277,221,289,135,31,161,249,534,121,191,106,548,57,43,487,52,127,120,214,44,50,196,141,45,417,249,71,84,247,116,207,176,50,267,59,324,67,366,204,57,221,127,79,141,39,49,242,45,375,24,134,499,518,49,45,123,35,267,39,37,135,45];
Surgeon = [1,3,3,3,4,3,4,3,5,2,5,3,13,5,8,5,5,1,3,1,9,2,2,5,2,10,13,6,8,6,1,4,1,3,6,6,5,4,5,8,3,2,4,6,6,6,5,2,1,9,3,4,5,3,8,1,6,9,10,4,2,7,4,3,2,5,3,4,2,1,3,7];
BlockAvailability = [[[0,0],[1,0],[0,0]],[[0,1],[1,0],[0,1]],[[0,0],[0,0],[1,0]],[[0,0],[0,0],[1,1]],[[0,1],[0,0],[0,0]],[[0,0],[0,0],[0,0]]];
SurgeonAvailability = [[[1,1],[1,1],[1,1],[1,1],[1,1],[1,1]],[[1,1],[1,1],[1,1],[1,1],[1,1],[1,1]],[[1,1],[1,1],[1,1],[1,1],[1,1],[1,1]],[[1,1],[1,1],[1,1],[1,1],[1,1],[1,1]],[[1,1],[1,1],[1,1],[1,1],[1,1],[1,1]],[[1,1],[1,1],[1,1],[1,1],[1,1],[1,1]],[[1,1],[1,1],[1,1],[1,1],[1,1],[1,1]],[[1,1],[1,1],[1,1],[1,1],[1,1],[1,1]],[[1,1],[1,1],[1,1],[1,1],[1,1],[1,1]],[[1,1],[1,1],[1,1],[1,1],[1,1],[1,1]],[[1,1],[1,1],[1,1],[1,1],[1,1],[1,1]],[[1,1],[1,1],[1,1],[1,1],[1,1],[1,1]],[[1,1],[1,1],[1,1],[1,1],[1,1],[1,1]],[[1,1],[1,1],[1,1],[1,1],[1,1],[1,1]],[[1,1],[1,1],[1,1],[1,1],[1,1],[1,1]],[[1,1],[1,1],[1,1],[1,1],[1,1],[1,1]],[[1,1],[1,1],[1,1],[1,1],[1,1],[1,1]]];
